
Gurobi 9.0.3 (win64, Java) logging started Thu Feb 18 22:48:10 2021


--------------------------------------------
Warning: your license will expire in 14 days
--------------------------------------------

Academic license - for non-commercial use only
